RT is False
Default write of storage_offers_DA.csv just to have a file (but constraint should be inactive)
Reading model...
...model read.
creating competitive generators file...
...competitive generators recorded.
Loading data...
.. day-ahead data with real-time VRE data read.
Compiling instance...
0
0.0
0
0.0
...instance created.
Creating Offer Mitigation (model will solve as dispatch if TRUE)...
NOTE: storage offers will not be mitigated
...storage offer mitigation file created
Converting model to MPEC...
...converted
NOTE: initial MIP solve with only storage competitive to get feasible solution
Solving...

Welcome to IBM(R) ILOG(R) CPLEX(R) Interactive Optimizer 12.9.0.0
  with Simplex, Mixed Integer & Barrier Optimizers
5725-A06 5725-A29 5724-Y48 5724-Y49 5724-Y54 5724-Y55 5655-Y21
Copyright IBM Corp. 1988, 2019.  All Rights Reserved.

Type 'help' for a list of available commands.
Type 'help' followed by a command name for more
information on commands.

CPLEX> Logfile 'cplex.log' closed.
Logfile 'C:\Users\llavin\Desktop\test826\logs\tmpof7qmwhy.cplex.log' open.
CPLEX> New value for parallel optimization mode: -1
CPLEX> New value for mixed integer optimality gap tolerance: 0.05
CPLEX> New value for feasibility tolerance: 1e-09
CPLEX> New value for emphasis for MIP optimization: 1
CPLEX> New value for deterministic time limit in ticks: 100000
CPLEX> Problem 'C:\Users\llavin\Desktop\test826\logs\tmpi2xumqhk.pyomo.lp' read.
Read time = 0.23 sec. (14.71 ticks)
CPLEX> Problem name         : C:\Users\llavin\Desktop\test826\logs\tmpi2xumqhk.pyomo.lp
Objective sense      : Maximize
Variables            :   53805  [Nneg: 1,  Box: 22000,  Free: 4464,
                                 Binary: 27340]
Objective nonzeros   :    9029
Linear constraints   :  123205  [Less: 41346,  Greater: 59096,  Equal: 22763]
  Nonzeros           :  291753
  RHS nonzeros       :   67491

Variables            : Min LB: -5000.000        Max UB: 1000000.       
Objective nonzeros   : Min   : 0.1750000        Max   : 2500.000       
Linear constraints   :
  Nonzeros           : Min   : 0.1750000        Max   : 1000000.       
  RHS nonzeros       : Min   : 0.1750000        Max   : 1000000.       
CPLEX> CPXPARAM_Parallel                                -1
CPXPARAM_Emphasis_MIP                            1
CPXPARAM_Simplex_Tolerances_Feasibility          1.0000000000000001e-09
CPXPARAM_DetTimeLimit                            100000
CPXPARAM_MIP_Tolerances_MIPGap                   0.050000000000000003
Tried aggregator 3 times.
MIP Presolve eliminated 88728 rows and 19052 columns.
MIP Presolve added 3372 rows and 0 columns.
MIP Presolve modified 24827 coefficients.
Aggregator did 12966 substitutions.
Reduced MIP has 24883 rows, 21231 columns, and 70960 nonzeros.
Reduced MIP has 8390 binaries, 0 generals, 0 SOSs, and 0 indicators.
Presolve time = 0.27 sec. (168.01 ticks)
Probing fixed 391 vars, tightened 4069 bounds.
Probing time = 0.06 sec. (18.55 ticks)
Tried aggregator 2 times.
MIP Presolve eliminated 881 rows and 786 columns.
MIP Presolve modified 3036 coefficients.
Aggregator did 35 substitutions.
Reduced MIP has 23967 rows, 20410 columns, and 68287 nonzeros.
Reduced MIP has 7999 binaries, 0 generals, 0 SOSs, and 0 indicators.
Presolve time = 0.11 sec. (89.32 ticks)
Probing fixed 0 vars, tightened 231 bounds.
Probing time = 0.14 sec. (22.22 ticks)
Clique table members: 45098.
MIP emphasis: integer feasibility.
MIP search method: dynamic search.
Parallel mode: opportunistic, using up to 32 threads.
Root relaxation solution time = 0.47 sec. (655.45 ticks)

        Nodes                                         Cuts/
   Node  Left     Objective  IInf  Best Integer    Best Bound    ItCnt     Gap

      0     0      -23.4052    96                    -23.4052     5867         
      0     0      -23.4052     3                    Cuts: 16     5873         
      0     0      -23.4052     3                   Covers: 1     5874         
      0     0      -23.4052     1                   Covers: 1     5876         
*     0     1      integral     0      -80.7922      -23.4052     5908   71.03%
Elapsed time = 2.92 sec. (1619.08 ticks, tree = 0.02 MB, solutions = 1)

Cover cuts applied:  1
Flow cuts applied:  11
Gomory fractional cuts applied:  5

Root node processing (before b&c):
  Real time             =    2.25 sec. (1599.41 ticks)
Parallel b&c, 32 threads:
  Real time             =    0.78 sec. (68.25 ticks)
  Sync time (average)   =    0.16 sec.
  Wait time (average)   =    0.00 sec.
                          ------------
Total (root+branch&cut) =    3.03 sec. (1667.66 ticks)

Solution pool: 1 solution saved.

MIP - Integer optimal solution:  Objective = -8.0792187564e+01
Solution time =    3.06 sec.  Iterations = 5935  Nodes = 6
Deterministic time = 1667.82 ticks  (544.50 ticks/sec)

CPLEX> Incumbent solution written to file 'C:\Users\llavin\Desktop\test826\logs\tmp6aujxhyc.cplex.sol'.
CPLEX> NOTE: no warmstart specified for MIP iteration, default behavior is true
NOTE: resolving with all competitive generators using storage-only solution to warmstart
Solving...

Welcome to IBM(R) ILOG(R) CPLEX(R) Interactive Optimizer 12.9.0.0
  with Simplex, Mixed Integer & Barrier Optimizers
5725-A06 5725-A29 5724-Y48 5724-Y49 5724-Y54 5724-Y55 5655-Y21
Copyright IBM Corp. 1988, 2019.  All Rights Reserved.

Type 'help' for a list of available commands.
Type 'help' followed by a command name for more
information on commands.

CPLEX> Logfile 'cplex.log' closed.
Logfile 'C:\Users\llavin\Desktop\test826\logs\tmpzv61jjpq.cplex.log' open.
CPLEX> New value for parallel optimization mode: -1
CPLEX> New value for mixed integer optimality gap tolerance: 0.05
CPLEX> New value for feasibility tolerance: 1e-09
CPLEX> New value for emphasis for MIP optimization: 1
CPLEX> New value for deterministic time limit in ticks: 100000
CPLEX> Problem 'C:\Users\llavin\Desktop\test826\logs\tmp2005oyz2.pyomo.lp' read.
Read time = 0.23 sec. (14.73 ticks)
CPLEX> MIP start file 'C:\Users\llavin\Desktop\test826\logs\tmpe_u85pxv.cplex.mst' read.
CPLEX> Problem name         : C:\Users\llavin\Desktop\test826\logs\tmp2005oyz2.pyomo.lp
Objective sense      : Maximize
Variables            :   54525  [Nneg: 1,  Box: 22720,  Free: 4464,
                                 Binary: 27340]
Objective nonzeros   :    9725
Linear constraints   :  123205  [Less: 41346,  Greater: 59096,  Equal: 22763]
  Nonzeros           :  291753
  RHS nonzeros       :   67491

Variables            : Min LB: -5000.000        Max UB: 1000000.       
Objective nonzeros   : Min   : 0.1750000        Max   : 2500.000       
Linear constraints   :
  Nonzeros           : Min   : 0.1750000        Max   : 1000000.       
  RHS nonzeros       : Min   : 0.1750000        Max   : 1000000.       
CPLEX> CPXPARAM_Parallel                                -1
CPXPARAM_Emphasis_MIP                            1
CPXPARAM_Simplex_Tolerances_Feasibility          1.0000000000000001e-09
CPXPARAM_DetTimeLimit                            100000
CPXPARAM_MIP_Tolerances_MIPGap                   0.050000000000000003
Warning:  No solution found from 1 MIP starts.
Retaining values of one MIP start for possible repair.
Tried aggregator 3 times.
MIP Presolve eliminated 88728 rows and 19772 columns.
MIP Presolve added 3372 rows and 0 columns.
MIP Presolve modified 24827 coefficients.
Aggregator did 12966 substitutions.
Reduced MIP has 24883 rows, 21231 columns, and 70960 nonzeros.
Reduced MIP has 8390 binaries, 0 generals, 0 SOSs, and 0 indicators.
Presolve time = 0.27 sec. (168.36 ticks)
Probing fixed 391 vars, tightened 4069 bounds.
Probing time = 0.08 sec. (18.55 ticks)
Tried aggregator 2 times.
MIP Presolve eliminated 881 rows and 786 columns.
MIP Presolve modified 3036 coefficients.
Aggregator did 35 substitutions.
Reduced MIP has 23967 rows, 20410 columns, and 68287 nonzeros.
Reduced MIP has 7999 binaries, 0 generals, 0 SOSs, and 0 indicators.
Presolve time = 0.11 sec. (89.33 ticks)
Probing fixed 0 vars, tightened 231 bounds.
Probing time = 0.14 sec. (22.22 ticks)
Clique table members: 45098.
MIP emphasis: integer feasibility.
MIP search method: dynamic search.
Parallel mode: opportunistic, using up to 32 threads.
Root relaxation solution time = 0.48 sec. (671.80 ticks)

        Nodes                                         Cuts/
   Node  Left     Objective  IInf  Best Integer    Best Bound    ItCnt     Gap

      0     0    54896.2539   136                  54896.2539     6162         
      0     0    54696.4585    70                    Cuts: 97     6278         
      0     0    54460.2003    65                    Cuts: 50     6356         
      0     0    54343.0293    55                    Cuts: 27     6372         
Repair heuristic found nothing.
      0     9    50962.0286    45                    Cuts: 11     6463         
Elapsed time = 4.03 sec. (1783.30 ticks, tree = 0.02 MB, solutions = 0)
    663   400    49381.5551    39                  51827.3802    10944         
*   809   485      integral     0    37965.7607    51827.3802    12220   36.51%
*  1013   590      integral     0    37969.2592    51827.3802    17437   36.50%
   1850   470    infeasible          37978.1378    50715.2405    24630   33.54%

Cover cuts applied:  9
Implied bound cuts applied:  1
Flow cuts applied:  99
Mixed integer rounding cuts applied:  10
Gomory fractional cuts applied:  11

Root node processing (before b&c):
  Real time             =    2.59 sec. (1751.15 ticks)
Parallel b&c, 32 threads:
  Real time             =    5.28 sec. (907.76 ticks)
  Sync time (average)   =    1.19 sec.
  Wait time (average)   =    0.00 sec.
                          ------------
Total (root+branch&cut) =    7.88 sec. (2658.90 ticks)

Solution pool: 3 solutions saved.

MIP - Integer optimal, tolerance (0.05/1e-06):  Objective =  3.7978137780e+04
Current MIP best bound =  3.9824797458e+04 (gap = 1846.66, 4.86%)
Solution time =    7.89 sec.  Iterations = 31156  Nodes = 2192 (72)
Deterministic time = 2659.06 ticks  (336.97 ticks/sec)

CPLEX> Incumbent solution written to file 'C:\Users\llavin\Desktop\test826\logs\tmpe518x3me.cplex.sol'.
CPLEX> Exporting results... 
